key = D;

melody = [Pitch(78), Pitch(76), Pitch(74), Pitch(73), Pitch(71), Pitch(69), Pitch(71), Pitch(73), Pitch(74), Pitch(73), Pitch(71), Pitch(69), Pitch(67), Pitch(66), Pitch(67), Pitch(69), Pitch(62), Pitch(69), Pitch(66), Pitch(66), Pitch(62), Pitch(62), Pitch(67), Pitch(69), Pitch(78), Pitch(76), Pitch(74), Pitch(78), Pitch(71), Pitch(69), Pitch(71), Pitch(73), Pitch(69), Pitch(69), Pitch(78), Pitch(69), Pitch(67), Pitch(66), Pitch(67), Pitch(69), Pitch(78), Pitch(76), Pitch(71), Pitch(78), Pitch(74), Pitch(78), Pitch(71), Pitch(62)];

min_perfect = 0;
min_plagal = 0;
min_imperfect = 0;
min_interrupted = 0;

max_stationary = 2;
enforce_cadences = false;